NAME /Users/henri/Research/solvers/instances/idol-instances/robust/collection/spp_dkp_Lefebvre_et_al_2026/shortest_path_3_8/uncertainty_sets/discrete_knapsack
ROWS
 N  OBJ
 L  primal_lower
COLUMNS
    MARKER    'MARKER'                 'INTORG'
    y[0,1]     OBJ        0
    y[0,1]     primal_lower -8.24
    y[0,2]     OBJ        0
    y[0,2]     primal_lower -3.8
    y[1,0]     OBJ        0
    y[1,0]     primal_lower -4.26
    y[1,2]     OBJ        0
    y[1,2]     primal_lower -6.61
    y[2,0]     OBJ        0
    y[2,0]     primal_lower -6.29
    y[2,1]     OBJ        0
    y[2,1]     primal_lower -16.61
    u[0,1]     OBJ        0
    u[0,1]     primal_lower 88
    u[0,2]     OBJ        0
    u[0,2]     primal_lower 86
    u[1,0]     OBJ        0
    u[1,0]     primal_lower 100
    u[1,2]     OBJ        0
    u[1,2]     primal_lower 35
    u[2,0]     OBJ        0
    u[2,0]     primal_lower 74
    u[2,1]     OBJ        0
    u[2,1]     primal_lower 76
    MARKER    'MARKER'                 'INTEND'
RHS
    RHS       primal_lower 100
BOUNDS
 LI BND       y[0,1]     0
 UI BND       y[0,1]     1
 LI BND       y[0,2]     0
 UI BND       y[0,2]     1
 LI BND       y[1,0]     0
 UI BND       y[1,0]     1
 LI BND       y[1,2]     0
 UI BND       y[1,2]     1
 LI BND       y[2,0]     0
 UI BND       y[2,0]     1
 LI BND       y[2,1]     0
 UI BND       y[2,1]     1
 LI BND       u[0,1]     0
 UI BND       u[0,1]     1
 LI BND       u[0,2]     0
 UI BND       u[0,2]     1
 LI BND       u[1,0]     0
 UI BND       u[1,0]     1
 LI BND       u[1,2]     0
 UI BND       u[1,2]     1
 LI BND       u[2,0]     0
 UI BND       u[2,0]     1
 LI BND       u[2,1]     0
 UI BND       u[2,1]     1
ENDATA
